# Solution for model micodag
# Objective value = 7.3340737494722514e+00
s_0_1 0
s_1_0 0
s_1_3 0
s_3_1 0
s_1_4 0
s_4_1 2.5890009151836590e-01
s_2_3 0
s_3_2 0.226712718966394
s_2_5 5.3337579265425274e+00
s_5_2 0
s_3_4 0
s_4_3 4.0381960134003947e-01
s_4_5 0
s_5_4 0
s_4_6 0
s_6_4 5.3337579265425274e+00
s_4_7 0
s_7_4 5.3337579265425274e+00
s_5_6 0
s_6_5 5.3337579265425274e+00
s_0_0 8.7293520718992390e-01
s_1_1 6.4062219867882231e-01
s_2_2 2.9024819391048964e+00
s_3_3 6.7138303258442722e-01
s_4_4 5.3337579265425274e+00
s_5_5 5.3337579265425274e+00
s_6_6 1.9344003554664582e+00
s_7_7 1.8620587094616718e+00
Gamma_0_0 9.3431001663790658e-01
Gamma_0_1 0
Gamma_0_2 0
Gamma_0_3 0
Gamma_0_4 0
Gamma_0_5 0
Gamma_0_6 0
Gamma_0_7 0
Gamma_1_0 0
Gamma_1_1 8.0038877970572730e-01
Gamma_1_2 0
Gamma_1_3 0
Gamma_1_4 0
Gamma_1_5 0
Gamma_1_6 0
Gamma_1_7 0
Gamma_2_0 0
Gamma_2_1 0
Gamma_2_2 1.7036672031546820e+00
Gamma_2_3 0
Gamma_2_4 0
Gamma_2_5 -8.3179033977017180e-01
Gamma_2_6 0
Gamma_2_7 0
Gamma_3_0 0
Gamma_3_1 0
Gamma_3_2 4.7614359070179108e-01
Gamma_3_3 8.1937966327242173e-01
Gamma_3_4 0
Gamma_3_5 0
Gamma_3_6 0
Gamma_3_7 0
Gamma_4_0 0
Gamma_4_1 -5.0882225925991753e-01
Gamma_4_2 0
Gamma_4_3 0.635468017558744
Gamma_4_4 0.82721549713348
Gamma_4_5 0
Gamma_4_6 0
Gamma_4_7 0
Gamma_5_0 0
Gamma_5_1 0
Gamma_5_2 0
Gamma_5_3 0
Gamma_5_4 0
Gamma_5_5 1.0119357830925477e+00
Gamma_5_6 0
Gamma_5_7 0
Gamma_6_0 0
Gamma_6_1 0
Gamma_6_2 0
Gamma_6_3 0
Gamma_6_4 -8.1624230931284447e-01
Gamma_6_5 1.1069495238610048e+00
Gamma_6_6 1.3908272198466851e+00
Gamma_6_7 0
Gamma_7_0 0
Gamma_7_1 0
Gamma_7_2 0
Gamma_7_3 0
Gamma_7_4 -8.3192457902048766e-01
Gamma_7_5 0
Gamma_7_6 0
Gamma_7_7 1.3645727204739482e+00
psi_0 0
psi_1 2
psi_2 3
psi_3 2
psi_4 1
psi_5 4
psi_6 0
psi_7 0
g_0_0 0
g_0_1 0
g_0_2 0
g_0_3 0
g_0_4 0
g_0_5 0
g_0_6 0
g_0_7 0
g_1_0 0
g_1_1 0
g_1_2 0
g_1_3 0
g_1_4 0
g_1_5 0
g_1_6 0
g_1_7 0
g_2_0 0
g_2_1 0
g_2_2 0
g_2_3 0
g_2_4 0
g_2_5 1
g_2_6 0
g_2_7 0
g_3_0 0
g_3_1 0
g_3_2 1
g_3_3 0
g_3_4 0
g_3_5 0
g_3_6 0
g_3_7 0
g_4_0 0
g_4_1 1
g_4_2 0
g_4_3 1
g_4_4 0
g_4_5 0
g_4_6 0
g_4_7 0
g_5_0 0
g_5_1 0
g_5_2 0
g_5_3 0
g_5_4 0
g_5_5 0
g_5_6 0
g_5_7 0
g_6_0 0
g_6_1 0
g_6_2 0
g_6_3 0
g_6_4 1
g_6_5 1
g_6_6 0
g_6_7 0
g_7_0 0
g_7_1 0
g_7_2 0
g_7_3 0
g_7_4 1
g_7_5 0
g_7_6 0
g_7_7 0
T_0 1.3589394446510994e-01
T_1 4.4531538945895477e-01
T_2 -1.0655662120399398e+00
T_3 3.9841546644986181e-01
T_4 3.7938008191552797e-01
T_5 -2.3730226819495215e-02
T_6 -6.5979738463894932e-01
T_7 -0.621682708680936
